c t mc
c file mc2022_track1_033.cnf
p cnf 92 480
21 -28 71 29 73 0
-87 -62 83 25 -19 0
60 81 53 33 59 0
29 -73 84 60 -81 0
-67 86 76 -15 -52 0
-82 -88 40 -74 -49 0
-78 85 -42 57 -4 0
-74 -49 -50 11 1 0
-38 37 80 56 -79 0
-87 -62 83 -25 19 0
-29 73 -84 -60 -81 0
-56 -79 -70 -12 9 0
-56 -79 -70 12 -9 0
20 41 -22 89 2 0
-39 64 -26 3 65 0
-38 -37 -80 56 -79 0
25 -19 -69 16 46 0
30 44 43 20 41 0
-82 88 40 -74 49 0
39 -64 -26 -3 -65 0
-21 28 -71 -29 73 0
87 62 83 25 -19 0
89 2 -13 -6 -54 0
33 -59 -77 -72 35 0
57 -4 -17 14 34 0
-60 -81 -53 33 -59 0
-45 -66 -32 38 -37 0
11 -1 31 -45 -66 0
14 -34 24 21 28 0
11 1 31 -45 66 0
-3 -65 -10 -68 -27 0
12 -9 -47 -30 44 0
14 -34 -24 -21 28 0
-72 -35 91 -87 62 0
21 28 71 -29 73 0
-14 -34 -24 -21 -28 0
12 -9 47 -30 -44 0
56 -79 -70 -12 -9 0
-29 -73 84 -60 -81 0
-39 -64 -26 -3 65 0
-21 -28 -71 -29 -73 0
-89 2 13 -6 -54 0
16 -46 -18 82 -88 0
11 -1 -31 -45 66 0
75 -36 7 -23 51 0
60 -81 -53 -33 -59 0
-75 36 7 23 -51 0
38 37 -80 56 -79 0
-68 -27 63 -90 -61 0
75 -36 -7 -23 -51 0
-15 52 55 39 64 0
78 -85 -42 -57 4 0
6 54 58 -67 86 0
-60 -81 53 33 59 0
-68 27 -63 90 61 0
29 -73 -84 -60 -81 0
15 52 55 39 -64 0
-33 59 77 72 35 0
6 -54 58 67 86 0
11 -1 31 45 66 0
-78 -85 -42 57 4 0
-89 2 -13 -6 54 0
-72 35 -91 -87 62 0
87 62 -83 -25 -19 0
25 19 -69 -16 46 0
-60 -81 -53 -33 59 0
-90 -61 8 -48 -92 0
39 -64 26 -3 65 0
39 -64 -26 3 65 0
90 61 -8 48 -92 0
-78 -85 42 -57 4 0
-74 49 50 -11 -1 0
75 36 7 23 51 0
87 62 83 -25 19 0
-39 64 -26 -3 -65 0
-74 49 -50 -11 1 0
-90 61 8 -48 92 0
-57 -4 -17 14 -34 0
68 27 63 90 61 0
3 -65 10 68 27 0
-74 49 -50 11 -1 0
-16 46 -18 82 -88 0
-14 -34 24 21 -28 0
6 54 58 67 -86 0
75 -36 -7 23 51 0
45 -66 -32 -38 -37 0
68 -27 63 -90 61 0
29 73 84 60 81 0
67 -86 -76 15 -52 0
16 -46 18 -82 -88 0
-60 81 -53 33 59 0
-87 62 83 -25 -19 0
75 -36 7 23 -51 0
39 64 26 -3 -65 0
-90 -61 -8 48 -92 0
78 85 42 57 -4 0
33 -59 -77 72 -35 0
39 64 -26 3 -65 0
-75 36 -7 23 51 0
23 -51 5 78 85 0
89 -2 13 -6 -54 0
-12 9 47 -30 -44 0
75 36 7 -23 -51 0
74 49 -50 11 1 0
33 59 77 -72 35 0
-6 -54 58 67 -86 0
29 73 -84 60 -81 0
30 -44 -43 20 41 0
-30 44 -43 20 41 0
-23 -51 -5 -78 -85 0
-11 -1 31 -45 66 0
20 41 22 89 -2 0
23 51 -5 -78 -85 0
33 -59 77 72 35 0
-89 2 -13 6 -54 0
-56 -79 70 -12 -9 0
3 -65 -10 -68 27 0
-20 -41 -22 89 2 0
-56 79 70 -12 9 0
-57 4 17 14 -34 0
-56 79 -70 -12 -9 0
-6 -54 58 -67 86 0
-15 52 -55 -39 64 0
30 -44 43 -20 41 0
-72 -35 91 87 -62 0
-45 -66 -32 -38 37 0
11 1 -31 45 66 0
20 -41 22 89 2 0
25 -19 69 16 -46 0
45 -66 32 -38 37 0
3 65 -10 68 27 0
-45 66 32 38 -37 0
23 51 5 78 -85 0
-11 1 -31 45 -66 0
45 -66 -32 38 37 0
-90 61 8 48 -92 0
-21 28 -71 29 -73 0
-57 -4 -17 -14 34 0
-89 -2 13 6 -54 0
-67 86 -76 15 -52 0
67 86 -76 -15 -52 0
23 -51 -5 78 -85 0
20 -41 22 -89 -2 0
6 54 -58 -67 -86 0
14 34 24 -21 28 0
-38 -37 80 -56 -79 0
-29 73 84 60 -81 0
-56 -79 70 12 9 0
-60 81 53 33 -59 0
15 -52 -55 -39 64 0
-72 -35 -91 -87 -62 0
74 49 -50 -11 -1 0
30 44 -43 20 -41 0
-20 41 22 -89 -2 0
74 -49 -50 -11 1 0
3 65 10 68 -27 0
-14 34 24 21 28 0
82 -88 40 -74 49 0
87 -62 -83 25 -19 0
-75 36 7 -23 51 0
-74 -49 -50 -11 -1 0
-57 -4 17 -14 -34 0
78 -85 42 -57 -4 0
-60 81 -53 -33 -59 0
-21 -28 71 -29 73 0
-60 -81 53 -33 -59 0
29 73 -84 -60 81 0
-75 -36 -7 -23 51 0
-90 61 -8 -48 -92 0
87 -62 83 -25 -19 0
78 -85 -42 57 -4 0
67 86 -76 15 52 0
-72 35 91 -87 -62 0
89 -2 -13 -6 54 0
-56 79 70 12 -9 0
3 65 -10 -68 -27 0
-20 -41 22 -89 2 0
57 -4 17 -14 34 0
-14 34 24 -21 -28 0
20 41 -22 -89 -2 0
-87 -62 -83 -25 -19 0
-29 -73 84 60 81 0
60 -81 53 33 -59 0
39 64 -26 -3 65 0
-57 -4 17 14 34 0
23 51 -5 78 85 0
-3 65 10 -68 -27 0
-23 -51 5 -78 85 0
-82 88 40 74 -49 0
57 4 17 14 34 0
-38 37 -80 -56 -79 0
25 19 69 16 46 0
38 37 -80 -56 79 0
-14 34 -24 -21 28 0
11 1 -31 -45 -66 0
-87 -62 -83 25 19 0
-45 66 -32 -38 -37 0
-16 46 18 -82 -88 0
25 -19 69 -16 46 0
39 64 26 3 65 0
-30 -44 43 -20 -41 0
-30 -44 -43 20 -41 0
82 88 40 74 49 0
14 -34 24 -21 -28 0
-11 1 31 -45 -66 0
-16 -46 18 82 -88 0
-57 4 -17 -14 -34 0
-33 59 -77 72 -35 0
-75 -36 7 -23 -51 0
-45 -66 32 -38 -37 0
56 79 -70 12 -9 0
-12 -9 47 30 -44 0
23 51 5 -78 85 0
-25 19 -69 -16 -46 0
87 62 -83 25 19 0
-21 -28 71 29 -73 0
15 -52 55 -39 -64 0
-78 -85 -42 -57 -4 0
-89 -2 -13 -6 -54 0
-68 -27 63 90 61 0
-23 -51 5 78 -85 0
33 59 -77 -72 -35 0
-12 -9 -47 -30 -44 0
-78 85 -42 -57 4 0
15 52 -55 39 64 0
3 -65 10 -68 -27 0
-72 35 -91 87 -62 0
56 79 70 -12 -9 0
-82 88 -40 74 49 0
-16 -46 -18 -82 -88 0
6 -54 -58 67 -86 0
12 -9 47 30 44 0
89 2 13 6 -54 0
33 -59 77 -72 -35 0
33 59 77 72 -35 0
-25 -19 -69 -16 46 0
-75 -36 -7 23 -51 0
75 36 -7 -23 51 0
74 -49 50 11 1 0
74 49 50 -11 1 0
-3 65 -10 -68 27 0
57 -4 17 14 -34 0
6 -54 58 -67 -86 0
-15 52 -55 39 -64 0
56 -79 70 12 -9 0
-15 -52 -55 -39 -64 0
87 -62 83 25 19 0
-68 27 -63 -90 -61 0
-68 27 63 90 -61 0
-11 -1 -31 -45 -66 0
-75 -36 7 23 51 0
82 88 -40 -74 49 0
29 -73 84 -60 81 0
-20 -41 22 89 -2 0
67 86 76 15 -52 0
-15 -52 -55 39 64 0
-90 -61 -8 -48 92 0
67 -86 76 -15 -52 0
-38 -37 -80 -56 79 0
38 -37 -80 -56 -79 0
-23 51 -5 -78 85 0
3 -65 -10 68 -27 0
16 -46 18 82 88 0
-87 62 83 25 19 0
-39 64 26 -3 65 0
21 28 -71 -29 -73 0
14 -34 -24 21 -28 0
20 41 22 -89 2 0
45 -66 32 38 -37 0
57 4 -17 -14 34 0
30 -44 43 20 -41 0
-20 41 22 89 2 0
14 34 24 21 -28 0
16 46 18 -82 88 0
-11 1 -31 -45 66 0
-25 -19 -69 16 -46 0
-12 -9 47 -30 44 0
89 -2 13 6 54 0
15 -52 -55 39 -64 0
90 61 8 48 92 0
12 -9 -47 30 -44 0
30 -44 -43 -20 -41 0
-39 -64 26 3 65 0
-6 -54 -58 67 86 0
-29 73 84 -60 81 0
-29 -73 -84 60 -81 0
-38 37 80 -56 79 0
-30 44 43 20 -41 0
-3 -65 -10 68 27 0
12 9 47 -30 44 0
-90 -61 8 48 92 0
68 27 -63 90 -61 0
87 -62 -83 -25 19 0
72 35 91 87 -62 0
45 66 -32 38 -37 0
38 -37 80 56 -79 0
-60 81 53 -33 59 0
-3 -65 10 68 -27 0
-6 -54 -58 -67 -86 0
-15 -52 55 39 -64 0
-67 -86 -76 -15 -52 0
72 35 -91 87 62 0
82 88 40 -74 -49 0
-33 -59 -77 -72 -35 0
29 -73 -84 60 81 0
-21 28 71 -29 -73 0
56 79 70 12 9 0
-39 -64 -26 3 -65 0
78 -85 42 57 4 0
6 -54 -58 -67 86 0
-3 65 -10 68 -27 0
72 -35 -91 87 -62 0
-6 54 58 67 86 0
-25 19 -69 16 46 0
-33 -59 77 72 -35 0
25 19 -69 16 -46 0
-14 -34 24 -21 28 0
-6 54 -58 -67 86 0
23 -51 -5 -78 85 0
25 19 69 -16 -46 0
-23 51 5 -78 -85 0
56 -79 -70 12 9 0
-33 59 -77 -72 35 0
68 -27 -63 -90 -61 0
21 -28 71 -29 -73 0
-67 86 76 15 52 0
30 44 -43 -20 41 0
-39 -64 26 -3 -65 0
-57 4 17 -14 34 0
82 -88 -40 -74 -49 0
75 36 -7 23 -51 0
-45 -66 32 38 37 0
38 -37 80 -56 79 0
68 -27 63 90 -61 0
89 -2 -13 6 -54 0
-67 86 -76 -15 52 0
57 -4 -17 -14 -34 0
-57 4 -17 14 34 0
23 -51 5 -78 -85 0
60 -81 -53 33 59 0
-29 -73 -84 -60 81 0
90 61 -8 -48 92 0
16 46 -18 82 88 0
-67 -86 -76 15 52 0
-82 -88 -40 -74 49 0
-14 34 -24 21 -28 0
21 28 71 29 -73 0
15 -52 55 39 64 0
-39 64 26 3 -65 0
-16 -46 18 -82 88 0
-78 85 42 57 4 0
57 4 17 -14 -34 0
38 37 80 -56 -79 0
-33 -59 -77 72 35 0
-67 -86 76 15 -52 0
38 37 80 56 79 0
45 66 32 38 37 0
67 86 76 -15 52 0
11 1 31 45 -66 0
-12 9 -47 30 -44 0
-23 51 -5 78 -85 0
-33 59 77 -72 -35 0
-3 65 10 68 27 0
-20 -41 -22 -89 -2 0
-25 -19 69 16 46 0
-38 37 -80 56 79 0
-45 66 -32 38 37 0
12 9 -47 -30 -44 0
60 81 -53 33 -59 0
-82 -88 -40 74 -49 0
-11 -1 -31 45 66 0
89 2 -13 6 54 0
12 9 47 30 -44 0
-82 88 -40 -74 -49 0
-12 -9 -47 30 44 0
56 -79 70 -12 9 0
-14 -34 -24 21 28 0
-23 51 5 78 85 0
67 -86 76 15 52 0
78 85 42 -57 4 0
72 -35 -91 -87 62 0
38 -37 -80 56 79 0
45 66 -32 -38 37 0
-72 -35 -91 87 62 0
74 -49 50 -11 -1 0
-11 1 31 45 66 0
-68 -27 -63 90 -61 0
60 81 53 -33 -59 0
90 -61 -8 48 92 0
90 61 8 -48 -92 0
90 -61 8 48 -92 0
-15 -52 55 -39 64 0
30 44 43 -20 -41 0
-38 -37 80 56 79 0
72 -35 91 87 62 0
39 -64 26 3 -65 0
21 -28 -71 29 -73 0
-74 49 50 11 1 0
15 52 55 -39 64 0
45 66 32 -38 -37 0
-56 79 -70 12 9 0
12 9 -47 30 44 0
-68 -27 -63 -90 61 0
3 65 10 -68 27 0
-30 44 43 -20 41 0
-21 -28 -71 29 73 0
60 81 -53 -33 59 0
-20 41 -22 -89 2 0
90 -61 -8 -48 -92 0
-30 -44 43 20 41 0
-87 62 -83 25 -19 0
-87 62 -83 -25 19 0
-15 52 55 -39 -64 0
-16 46 -18 -82 88 0
16 46 -18 -82 -88 0
-6 54 -58 67 -86 0
78 85 -42 57 4 0
14 34 -24 -21 -28 0
68 -27 -63 90 61 0
14 34 -24 21 28 0
67 -86 -76 -15 52 0
78 85 -42 -57 -4 0
21 -28 -71 -29 73 0
-74 -49 50 11 -1 0
82 -88 40 74 -49 0
-89 -2 13 -6 54 0
25 -19 -69 -16 -46 0
72 35 -91 -87 -62 0
16 -46 -18 -82 88 0
-89 2 13 6 54 0
-90 61 -8 48 92 0
90 -61 8 -48 92 0
-25 -19 69 -16 -46 0
20 -41 -22 89 -2 0
-3 -65 10 -68 27 0
-68 27 63 -90 61 0
-12 9 -47 -30 44 0
-72 35 91 87 62 0
33 59 -77 72 35 0
-20 41 -22 89 -2 0
89 2 13 -6 54 0
56 79 -70 -12 9 0
-25 19 69 -16 46 0
-33 -59 77 -72 35 0
-30 -44 -43 -20 41 0
-67 -86 76 -15 52 0
-29 73 -84 60 81 0
-74 -49 50 -11 1 0
-12 9 47 30 44 0
-25 19 69 16 -46 0
-23 -51 -5 78 85 0
82 88 -40 74 -49 0
72 35 91 -87 62 0
-21 28 71 29 73 0
72 -35 91 -87 -62 0
-6 54 58 -67 -86 0
74 49 50 11 -1 0
-75 36 -7 -23 -51 0
-16 46 18 82 88 0
11 -1 -31 45 -66 0
-89 -2 -13 6 54 0
-11 -1 31 45 -66 0
-78 85 42 -57 -4 0
-45 66 32 -38 37 0
20 -41 -22 -89 2 0
-16 -46 -18 82 88 0
82 -88 -40 74 49 0
57 4 -17 14 -34 0
-82 -88 40 74 49 0
15 52 -55 -39 -64 0
6 54 -58 67 86 0
21 28 -71 29 73 0
68 27 63 -90 -61 0
-30 44 -43 -20 -41 0
68 27 -63 -90 61 0
-78 -85 42 57 -4 0
60 -81 53 -33 59 0
29 73 84 -60 -81 0
16 46 18 82 -88 0
74 -49 -50 11 -1 0
